<instance format="XCSP3" type="CSP">
  <variables>
    <var id="x0"> 1 2 15 </var>
    <var id="x1"> 0 2 7 10 15 </var>
    <var id="x2"> 5 7 10 11 </var>
    <var id="x3"> 0 2 5 11 15 </var>
    <var id="x4"> 0..2 5 </var>
    <var id="x5"> 0..2 10 11 </var>
    <var as="x3" id="x6"/>
    <var id="x7"> 0 1 5 10 </var>
    <var id="x8"> 1 3 5 10 </var>
    <var id="x9"> 1 4 9..11 </var>
    <var id="x10"> 4 11 </var>
    <var id="x11"> 3 5 9..11 13 </var>
    <var id="x12"> 1 5 9 </var>
    <var id="x13"> 3 10 </var>
    <var id="x14"> 3..5 9 11 </var>
    <var id="x15"> 1 4 5 </var>
    <var id="x16"> 0 2 10 15 </var>
    <var id="x17"> 5 6 10 16 </var>
    <var id="x18"> 2 10 14 </var>
    <var id="x19"> 0 2 10 </var>
    <var id="x20"> 0 2 5 15 </var>
    <var id="x21"> 2 6 14 15 </var>
    <var id="x22"> 2 5 6 10 </var>
    <var id="x23"> 5 14..16 </var>
    <var id="x24"> 2 8 17 </var>
    <var id="x25"> 3 5 6 17 </var>
    <var id="x26"> 2 4 17 </var>
    <var id="x27"> 2 5 6 8 </var>
    <var id="x28"> 2 5 6 8 </var>
    <var id="x29"> 2..5 </var>
    <var id="x30"> 3..6 </var>
    <var id="x31"> 1 8 15 16 </var>
    <var id="x32"> 0 5 8 10 15 16 </var>
    <var id="x33"> 1 4 10 16 </var>
    <var id="x34"> 0 4 16 </var>
    <var id="x35"> 0 5 8 15 </var>
    <var id="x36"> 0 1 5 8 </var>
    <var id="x37"> 1 4 10 </var>
    <var id="x38"> 0 1 4 5 15 </var>
    <var id="x39"> 5 6 12 </var>
    <var id="x40"> 2 5 6 12 15 </var>
    <var id="x41"> 2 5 6 9 </var>
    <var id="x42"> 2 4 9 </var>
    <var id="x43"> 6 12 15 </var>
    <var id="x44"> 4..6 15 </var>
    <var id="x45"> 5 6 9 </var>
    <var id="x46"> 0 3 4 8 10 </var>
    <var id="x47"> 0 8 10 16 </var>
    <var id="x48"> 0 8 12 </var>
    <var id="x49"> 0 1 8 </var>
    <var id="x50"> 3 10 12 16 </var>
    <var id="x51"> 1 3 4 </var>
    <var id="x52"> 3 4 10 </var>
    <var id="x53"> 0 1 3 4 </var>
    <var id="x54"> 1 9 13 17 </var>
    <var id="x55"> 3 </var>
    <var id="x56"> 1 3 5 6 17 </var>
    <var id="x57"> 1 9 11 17 </var>
    <var id="x58"> 6 11 17 </var>
    <var id="x59"> 3 6 17 </var>
    <var id="x60"> 1 3 6 9 </var>
    <var id="x61"> 3 5 6 11 13 </var>
    <var id="x62"> 2 9 15 17 </var>
    <var id="x63"> 6 10 17 </var>
    <var id="x64"> 0 2 6 11 17 </var>
    <var id="x65"> 9..11 </var>
    <var id="x66"> 2 9 10 </var>
    <var id="x67"> 0 2 9 11 15 </var>
    <var id="x68"> 2 6 9 15 </var>
    <var id="x69"> 2 6 10 11 </var>
    <var id="x70"> 0 4 7 10 </var>
    <var id="x71"> 1 5 10 16 </var>
    <var id="x72"> 0 5 10 14 16 </var>
    <var id="x73"> 1 4 10 16 </var>
    <var id="x74"> 1 4 7 10 14 </var>
    <var id="x75"> 0 1 4 10 </var>
    <var id="x76"> 1 4 14 </var>
    <var id="x77"> 0 1 4 5 14 </var>
    <var id="x78"> 3 9 14 </var>
    <var id="x79"> 0 2 8 15 </var>
    <var id="x80"> 0..2 8 9 14 </var>
    <var id="x81"> 1 2 9 14 </var>
    <var id="x82"> 3 15 </var>
    <var id="x83"> 0 1 3 14 15 </var>
    <var id="x84"> 1 8 14 15 </var>
    <var id="x85"> 0 1 8 9 14 </var>
    <var id="x86"> 3 4 7 </var>
    <var id="x87"> 14 16 </var>
    <var id="x88"> 4 6 11 14 16 </var>
    <var id="x89"> 6 11 </var>
    <var id="x90"> 3 4 9 11 </var>
    <var id="x91"> 3 4 6 11 </var>
    <var id="x92"> 4 14 16 </var>
    <var id="x93"> 6 9 14 </var>
    <var id="x94"> 0 3 4 15 </var>
    <var id="x95"> 0 4 14 16 </var>
    <var id="x96"> 0 9 14 </var>
    <var id="x97"> 4 9 13 14 </var>
    <var id="x98"> 0 3 4 9 15 </var>
    <var id="x99"> 3 4 9 14 15 </var>
    <var id="x100"> 0 3 4 14 15 </var>
    <var id="x101"> 0 9 14 </var>
    <var id="x102"> 8 10 </var>
    <var id="x103"> 1 2 4 9 10 17 </var>
    <var id="x104"> 2 4 17 </var>
    <var id="x105"> 9 10 13 </var>
    <var id="x106"> 1 2 4 9 10 13 </var>
    <var id="x107"> 1 2 4 9 10 </var>
    <var id="x108"> 2 4 10 13 </var>
    <var id="x109"> 1 8..10 </var>
    <var id="x110"> 0 2 3 8 10 </var>
    <var id="x111"> 3 6 10 17 </var>
    <var id="x112"> 3 10 14 </var>
    <var id="x113"> 0 2 3 10 </var>
    <var id="x114"> 2 3 6 14 </var>
    <var id="x115"> 2 3 6 10 </var>
    <var id="x116"> 0 3 6 14 </var>
    <var id="x117"> 8 14 </var>
    <var id="x118"> 2 9 </var>
    <var id="x119"> 5 9 11 14 </var>
    <var id="x120"> 2 5 11 12 </var>
    <var id="x121"> 2 4 9 14 </var>
    <var id="x122"> 12 </var>
    <var id="x123"> 4 5 14 </var>
    <var id="x124"> 5 9 14 </var>
    <var id="x125"> 1 2 8 15 </var>
    <var id="x126"> 5 8 14 15 </var>
    <var id="x127"> 1 2 </var>
    <var id="x128"> 2 6 14 </var>
    <var id="x129"> 3 6 15 </var>
    <var id="x130"> 2 3 5 15 </var>
    <var id="x131"> 2 3 5 6 </var>
    <var id="x132"> 1 5 8 14 15 </var>
    <var id="x133"> 1 2 15 16 </var>
    <var id="x134"> 10 14..16 </var>
    <var id="x135"> 1 2 10 11 16 </var>
    <var id="x136"> 10 11 14 </var>
    <var id="x137"> 1 2 10 11 </var>
    <var id="x138"> 2 11 15 </var>
    <var id="x139"> 1 2 6 14 15 </var>
    <var id="x140"> 1 6 10 14 </var>
  </variables>
  <constraints>
    <group>
      <allDifferent> %... </allDifferent>
      <args> x0 x1 x2 x3 x4 x5 x6 x7 </args>
      <args> x8 x9 x10 x11 x12 x13 x14 x15 </args>
      <args> x16 x17 x18 x19 x20 x21 x22 x23 </args>
      <args> x24 x25 x26 x27 x28 x29 x30 </args>
      <args> x31 x32 x33 x34 x35 x36 x37 x38 </args>
      <args> x39 x40 x41 x42 x43 x44 x45 </args>
      <args> x46 x47 x48 x49 x50 x51 x52 x53 </args>
      <args> x54 x55 x56 x57 x58 x59 x60 x61 </args>
      <args> x62 x63 x64 x65 x66 x67 x68 x69 </args>
      <args> x70 x71 x72 x73 x74 x75 x76 x77 </args>
      <args> x78 x79 x80 x81 x82 x83 x84 x85 </args>
      <args> x86 x87 x88 x89 x90 x91 x92 x93 </args>
      <args> x94 x95 x96 x97 x98 x99 x100 x101 </args>
      <args> x102 x103 x104 x105 x106 x107 x108 x109 </args>
      <args> x110 x111 x112 x113 x114 x115 x116 x117 </args>
      <args> x118 x119 x120 x121 x122 x123 x124 </args>
      <args> x125 x126 x127 x128 x129 x130 x131 x132 </args>
      <args> x133 x134 x135 x136 x137 x138 x139 x140 </args>
      <args> x0 x24 x31 x54 x62 x118 x125 x133 </args>
      <args> x1 x16 x46 x55 x70 x86 x94 x110 </args>
      <args> x8 x17 x25 x39 x56 x63 x71 x111 </args>
      <args> x32 x47 x72 x87 x102 x126 x134 </args>
      <args> x9 x26 x33 x57 x73 x103 x127 x135 </args>
      <args> x10 x34 x58 x64 x88 x95 x104 x128 </args>
      <args> x2 x11 x65 x78 x105 x112 x119 x136 </args>
      <args> x3 x27 x35 x40 x48 x79 x89 x120 </args>
      <args> x4 x12 x28 x36 x41 x49 x80 x96 </args>
      <args> x18 x37 x66 x74 x81 x97 x106 x121 </args>
      <args> x5 x19 x42 x75 x90 x107 x113 x137 </args>
      <args> x13 x43 x50 x59 x82 x122 x129 </args>
      <args> x6 x14 x20 x29 x67 x98 x130 x138 </args>
      <args> x21 x51 x60 x68 x76 x99 x114 x139 </args>
      <args> x22 x52 x61 x69 x91 x108 x115 x131 </args>
      <args> x30 x38 x44 x53 x77 x83 x100 x116 </args>
      <args> x15 x23 x84 x92 x117 x123 x132 </args>
      <args> x7 x45 x85 x93 x101 x109 x124 x140 </args>
    </group>
  </constraints>
</instance>

